NAME : G100_3215_01
COMMENT : Generated CVRP instance (n=100)
TYPE : CVRP
DIMENSION : 101
EDGE_WEIGHT_TYPE : EUC_2D
CAPACITY : 16
NODE_COORD_SECTION
1    0    0   
2    462  634 
3    847  12  
4    443  630 
5    538  574 
6    621  535 
7    820  143 
8    743  314 
9    438  761 
10   573  723 
11   402  722 
12   500  638 
13   672  537 
14   106  107 
15   999  74  
16   417  469 
17   1000 57  
18   96   108 
19   285  642 
20   501  669 
21   498  679 
22   928  382 
23   224  693 
24   493  683 
25   504  628 
26   509  798 
27   607  677 
28   399  657 
29   529  541 
30   503  641 
31   122  110 
32   310  472 
33   293  538 
34   689  541 
35   654  638 
36   819  251 
37   483  628 
38   994  405 
39   976  573 
40   150  122 
41   148  405 
42   265  853 
43   804  667 
44   772  132 
45   566  765 
46   447  674 
47   158  80  
48   808  545 
49   116  165 
50   604  541 
51   260  731 
52   811  98  
53   26   100 
54   561  542 
55   572  475 
56   190  80  
57   105  750 
58   959  170 
59   30   161 
60   145  157 
61   141  681 
62   852  7   
63   121  831 
64   446  725 
65   352  834 
66   61   197 
67   929  403 
68   527  670 
69   984  55  
70   796  813 
71   362  655 
72   488  697 
73   148  48  
74   108  284 
75   438  659 
76   290  827 
77   273  765 
78   237  690 
79   500  728 
80   762  81  
81   957  167 
82   485  602 
83   753  117 
84   182  91  
85   152  651 
86   835  46  
87   569  454 
88   168  55  
89   21   67  
90   500  568 
91   593  686 
92   415  725 
93   54   91  
94   621  522 
95   111  97  
96   251  632 
97   98   90  
98   206  761 
99   481  654 
100  82   54  
101  478  731 
DEMAND_SECTION
1    0   
2    1   
3    1   
4    1   
5    1   
6    1   
7    1   
8    1   
9    1   
10   1   
11   1   
12   1   
13   1   
14   1   
15   1   
16   1   
17   1   
18   1   
19   1   
20   1   
21   1   
22   1   
23   1   
24   1   
25   1   
26   1   
27   1   
28   1   
29   1   
30   1   
31   1   
32   1   
33   1   
34   1   
35   1   
36   1   
37   1   
38   1   
39   1   
40   1   
41   1   
42   1   
43   1   
44   1   
45   1   
46   1   
47   1   
48   1   
49   1   
50   1   
51   1   
52   1   
53   1   
54   1   
55   1   
56   1   
57   1   
58   1   
59   1   
60   1   
61   1   
62   1   
63   1   
64   1   
65   1   
66   1   
67   1   
68   1   
69   1   
70   1   
71   1   
72   1   
73   1   
74   1   
75   1   
76   1   
77   1   
78   1   
79   1   
80   1   
81   1   
82   1   
83   1   
84   1   
85   1   
86   1   
87   1   
88   1   
89   1   
90   1   
91   1   
92   1   
93   1   
94   1   
95   1   
96   1   
97   1   
98   1   
99   1   
100  1   
101  1   
DEPOT_SECTION
1
-1
EOF
